20
0 1 0.86 0.22
0 2 0.61 0.22
0 3 0.62 0.12
0 4 0.73 0.22
0 5 0.5 0.27
0 6 0.32 0.21
0 7 0.58 0.1
0 8 0.58 0.25
0 9 0.16 0.13
0 10 0.67 0.26
0 11 0.48 0.37
0 12 0.42 0.22
0 13 0.42 0.1
0 14 0.68 0.32
0 15 0.49 0.14
0 16 0.5 0.29
0 17 0.6 0.24
0 18 0.34 0.19
0 19 0.54 0.35
1 2 0.61 0.19
1 3 0.73 0.17
1 4 0.61 0.24
1 5 0.44 0.26
1 6 0.55 0.21
1 7 0.52 0.12
1 8 0.5 0.17
1 9 0.7 0.12
1 10 0.78 0.3
1 11 0.82 0.34
1 12 0.58 0.31
1 13 0.56 0.25
1 14 0.44 0.35
1 15 0.54 0.27
1 16 0.86 0.28
1 17 0.56 0.16
1 18 0.66 0.06
1 19 0.74 0.34
2 3 0.76 0.25
2 4 0.61 0.27
2 5 0.58 0.28
2 6 0.73 0.28
2 7 0.84 0.28
2 8 0.67 0.24
2 9 0.56 0.19
2 10 0.81 0.33
2 11 0.52 0.22
2 12 0.4 0.34
2 13 0.53 0.17
2 14 0.68 0.39
2 15 0.23 0.08
2 16 0.46 0.35
2 17 0.64 0.27
2 18 0.4 0.13
2 19 0.48 0.34
3 4 0.6 0.34
3 5 0.56 0.39
3 6 0.47 0.12
3 7 0.9 0.22
3 8 0.44 0.16
3 9 0.5 0.25
3 10 0.86 0.24
3 11 0.72 0.38
3 12 0.7 0.34
3 13 0.54 0.08
3 14 0.75 0.3
3 15 0.66 0.17
3 16 0.7 0.41
3 17 0.84 0.22
3 18 0.58 0.19
3 19 0.52 0.4
4 5 0.23 0.16
4 6 0.64 0.42
4 7 0.77 0.12
4 8 0.59 0.38
4 9 0.62 0.28
4 10 0.79 0.33
4 11 0.82 0.29
4 12 0.64 0.07
4 13 0.7 0.28
4 14 0.49 0.4
4 15 0.68 0.19
4 16 0.64 0.21
4 17 0.7 0.23
4 18 0.45 0.27
4 19 0.51 0.24
5 6 0.56 0.3
5 7 0.54 0.28
5 8 0.58 0.26
5 9 0.48 0.14
5 10 0.56 0.17
5 11 0.65 0.41
5 12 0.61 0.23
5 13 0.52 0.33
5 14 0.5 0.48
5 15 0.48 0.3
5 16 0.82 0.3
5 17 0.84 0.31
5 18 0.42 0.2
5 19 0.56 0.34
6 7 0.43 0.3
6 8 0.52 0.04
6 9 0.48 0.21
6 10 0.64 0.29
6 11 0.66 0.26
6 12 0.66 0.43
6 13 0.63 0.2
6 14 0.72 0.36
6 15 0.74 0.28
6 16 0.76 0.37
6 17 0.63 0.34
6 18 0.46 0.15
6 19 0.63 0.4
7 8 0.56 0.29
7 9 0.42 0.16
7 10 0.79 0.29
7 11 0.7 0.41
7 12 0.84 0.19
7 13 0.68 0.2
7 14 0.56 0.28
7 15 0.75 0.2
7 16 0.38 0.27
7 17 0.8 0.28
7 18 0.6 0.18
7 19 0.75 0.36
8 9 0.47 0.17
8 10 0.52 0.25
8 11 0.38 0.22
8 12 0.42 0.4
8 13 0.6 0.24
8 14 0.63 0.32
8 15 0.48 0.24
8 16 0.6 0.33
8 17 0.84 0.33
8 18 0.29 0.11
8 19 0.68 0.44
9 10 0.51 0.31
9 11 0.64 0.39
9 12 0.58 0.3
9 13 0.26 0.19
9 14 0.52 0.36
9 15 0.33 0.27
9 16 0.34 0.16
9 17 0.58 0.28
9 18 0.18 0.06
9 19 0.7 0.39
10 11 0.6 0.32
10 12 0.66 0.3
10 13 0.32 0.16
10 14 0.46 0.38
10 15 0.62 0.25
10 16 0.41 0.28
10 17 0.53 0.14
10 18 0.69 0.36
10 19 0.6 0.44
11 12 0.71 0.34
11 13 0.87 0.32
11 14 0.52 0.4
11 15 0.75 0.23
11 16 0.75 0.26
11 17 0.55 0.18
11 18 0.6 0.33
11 19 0.41 0.24
12 13 0.52 0.3
12 14 0.38 0.38
12 15 0.63 0.26
12 16 0.6 0.14
12 17 0.53 0.16
12 18 0.62 0.34
12 19 0.79 0.31
13 14 0.52 0.22
13 15 0.3 0.09
13 16 0.6 0.35
13 17 0.32 0.14
13 18 0.44 0.25
13 19 0.46 0.32
14 15 0.78 0.31
14 16 0.62 0.24
14 17 0.58 0.36
14 18 0.34 0.3
14 19 0.5 0.45
15 16 0.67 0.4
15 17 0.62 0.19
15 18 0.51 0.21
15 19 0.42 0.26
16 17 0.42 0.3
16 18 0.5 0.22
16 19 0.82 0.23
17 18 0.75 0.22
17 19 0.51 0.3
18 19 0.74 0.34
